proyfinal/src/viki/013/experimentInOfficeAgust.take6.output/b5530176-9f24-4d10-a330-4fa050700f60.als.dat
{'cnf.clauses': '118081',
 'cnf.totvars': '69608',
 'conflict literals': '62',
 'conflicts': '20',
 'decisions': '5293',
 'memused.mb': '18.19',
 'outcome': 'UNSAT',
 'propagations': '28740',
 'restarts': '1',
 'solver.msecs': 26,
 'task.msecs': 77}
