proyfinal/src/viki/013/experimentInOfficeAgust.take6.output/b5530176-9f24-4d10-a330-4fa050700f60.als.out
Reading from standard input... Use '--help' for help.
============================[ Problem Statistics ]=============================
|                                                                             |
|  Number of variables:         69608                                         |
|  Number of clauses:          118081                                         |
|  Parse time:                   0.02 s                                       |
|                                                                             |
============================[ Search Statistics ]==============================
| Conflicts |          ORIGINAL         |          LEARNT          | Progress |
|           |    Vars  Clauses Literals |    Limit  Clauses Lit/Cl |          |
===============================================================================
===============================================================================
restarts              : 1
conflicts             : 20             (743 /sec)
decisions             : 5293           (0.00 % random) (196678 /sec)
propagations          : 28740          (1067925 /sec)
conflict literals     : 62             (0.00 % deleted)
Memory used           : 18.19 MB
CPU time              : 0.026912 s

UNSATISFIABLE
